15
0 62 100 60 70 86 77 1 12 82 21 94 18 48 25 
97 0 48 100 94 83 88 4 40 58 79 48 3 96 18 
85 94 0 20 47 17 17 10 67 8 33 45 87 19 27 
10 95 38 0 58 86 24 5 61 88 24 30 100 6 62 
49 13 74 34 0 88 55 100 72 15 49 57 35 100 72 
15 8 73 12 59 0 56 27 52 19 27 36 84 61 82 
66 27 42 66 90 2 0 33 77 18 72 28 64 18 25 
1 90 89 3 87 25 88 0 38 4 31 5 66 5 30 
53 10 11 55 20 1 40 46 0 32 32 78 1 54 54 
33 89 42 3 68 8 51 95 43 0 18 55 12 10 85 
39 27 48 81 1 81 47 51 93 67 0 50 37 55 58 
25 29 94 87 54 44 43 21 70 55 6 0 29 88 48 
94 42 13 28 28 16 40 88 98 63 100 13 0 56 20 
63 63 68 35 23 10 48 30 86 61 63 11 56 0 17 
27 13 15 87 22 74 9 42 56 33 80 81 46 100 0 
